0 7 7 8 3 10 4 -1 2 -1 
1 8 4 3 10 2 5 2 2 -1 
10 8 6 6 1 9 2 10 10 -1 
8 1 6 2 2 4 0 1 -1 -1 
10 8 7 -1 2 -1 -1 4 6 -1 
3 0 10 9 -1 5 9 2 9 -1 
10 0 8 2 8 1 7 7 8 -1 
-1 -1 2 4 9 1 3 10 4 -1 
6 7 10 8 4 10 -1 3 2 -1 
-1 3 -1 1 5 2 10 2 -1 -1 
10 2 -1 3 8 4 6 7 10 -1 
1 10 1 -1 3 1 -1 9 10 -1 
8 4 1 9 -1 5 10 9 -1 -1 
0 6 9 9 7 5 7 5 3 -1 
10 8 6 10 10 -1 0 4 2 -1 
9 9 1 1 10 9 7 -1 7 -1 
8 4 5 2 6 4 8 4 5 -1 
2 10 3 4 1 3 3 4 1 -1 
2 3 9 0 5 8 7 7 5 -1 
8 8 2 3 7 -1 10 2 7 -1 
